1305 3
1360 5
5623
6844 9
6867
7170 10
8674
8971 11
8996
9293 12
9319
10217 15
10253
10550 16
10561
12078 21
46786 3
46841 21
48645
50165 26
50373
53127 35
53207
53808 37
54802
55103 38
55483
57598 45
57626
58234 47
58506
